102 5
2 2 2 2 2
0  0 0 0 0 0  20 2 7 12 17 22 27 32 37 42 47 52 57 62 67 72 77 82 87 92 97
72  0 1 0 0 0  1 3
87  1 0 0 0 0  1 4
95  0 0 0 0 1  1 5
66  0 0 1 0 0  1 6
60  0 0 0 1 0  1 102
5  0 0 0 0 1  1 8
35  0 0 0 1 0  1 9
48  1 0 0 0 0  1 10
39  0 0 1 0 0  1 11
54  0 1 0 0 0  1 102
46  0 1 0 0 0  1 13
20  0 0 0 1 0  1 14
21  0 0 1 0 0  1 15
97  1 0 0 0 0  1 16
55  0 0 0 0 1  1 102
59  1 0 0 0 0  1 18
19  0 0 0 1 0  1 19
46  0 0 0 0 1  1 20
34  0 1 0 0 0  1 21
37  0 0 1 0 0  1 102
23  0 0 0 0 1  1 23
73  0 0 1 0 0  1 24
25  0 0 0 1 0  1 25
24  0 1 0 0 0  1 26
28  1 0 0 0 0  1 102
28  0 0 0 1 0  1 28
45  1 0 0 0 0  1 29
5  0 0 0 0 1  1 30
78  0 1 0 0 0  1 31
83  0 0 1 0 0  1 102
53  1 0 0 0 0  1 33
71  0 0 0 1 0  1 34
37  0 1 0 0 0  1 35
29  0 0 0 0 1  1 36
12  0 0 1 0 0  1 102
12  0 0 0 0 1  1 38
87  0 0 1 0 0  1 39
33  0 0 0 1 0  1 40
55  0 1 0 0 0  1 41
38  1 0 0 0 0  1 102
49  0 0 1 0 0  1 43
83  0 0 0 1 0  1 44
40  0 1 0 0 0  1 45
48  1 0 0 0 0  1 46
7  0 0 0 0 1  1 102
65  0 0 1 0 0  1 48
17  0 0 0 1 0  1 49
90  1 0 0 0 0  1 50
27  0 0 0 0 1  1 51
23  0 1 0 0 0  1 102
72  0 1 0 0 0  1 53
87  1 0 0 0 0  1 54
95  0 0 0 0 1  1 55
66  0 0 1 0 0  1 56
60  0 0 0 1 0  1 102
5  0 0 0 0 1  1 58
35  0 0 0 1 0  1 59
48  1 0 0 0 0  1 60
39  0 0 1 0 0  1 61
54  0 1 0 0 0  1 102
46  0 1 0 0 0  1 63
20  0 0 0 1 0  1 64
21  0 0 1 0 0  1 65
97  1 0 0 0 0  1 66
55  0 0 0 0 1  1 102
59  1 0 0 0 0  1 68
19  0 0 0 1 0  1 69
46  0 0 0 0 1  1 70
34  0 1 0 0 0  1 71
37  0 0 1 0 0  1 102
23  0 0 0 0 1  1 73
73  0 0 1 0 0  1 74
25  0 0 0 1 0  1 75
24  0 1 0 0 0  1 76
28  1 0 0 0 0  1 102
28  0 0 0 1 0  1 78
45  1 0 0 0 0  1 79
5  0 0 0 0 1  1 80
78  0 1 0 0 0  1 81
83  0 0 1 0 0  1 102
53  1 0 0 0 0  1 83
71  0 0 0 1 0  1 84
37  0 1 0 0 0  1 85
29  0 0 0 0 1  1 86
12  0 0 1 0 0  1 102
12  0 0 0 0 1  1 88
87  0 0 1 0 0  1 89
33  0 0 0 1 0  1 90
55  0 1 0 0 0  1 91
38  1 0 0 0 0  1 102
49  0 0 1 0 0  1 93
83  0 0 0 1 0  1 94
40  0 1 0 0 0  1 95
48  1 0 0 0 0  1 96
7  0 0 0 0 1  1 102
65  0 0 1 0 0  1 98
17  0 0 0 1 0  1 99
90  1 0 0 0 0  1 100
27  0 0 0 0 1  1 101
23  0 1 0 0 0  1 102
0  0 0 0 0 0  0
